p edge 40 70 15
v 3 5 15 28
v 2 14 29
v 3 12 23 30
v 1 16
v 3 25 26 35
v 4 6 24 31 36
v 2 18 22
v 3 4 8 37
v 2 2 27
v 4 9 11 17 32
v 3 13 21 34
v 2 19 40
v 3 7 20 33
v 4 3 10 38 39
v 1 1
e 1 7
e 1 12
e 1 24
e 1 26
e 2 7
e 2 10
e 2 21
e 2 32
e 2 36
e 2 38
e 3 5
e 3 21
e 3 30
e 3 31
e 4 33
e 4 37
e 5 6
e 5 33
e 5 38
e 6 15
e 6 19
e 6 30
e 6 40
e 7 9
e 7 23
e 7 32
e 7 33
e 8 15
e 8 20
e 8 21
e 8 29
e 8 31
e 10 23
e 10 27
e 11 20
e 11 27
e 12 17
e 12 33
e 12 40
e 13 33
e 15 20
e 15 30
e 16 27
e 16 32
e 17 21
e 17 37
e 18 27
e 18 31
e 19 26
e 19 29
e 19 38
e 20 39
e 21 23
e 21 33
e 21 36
e 22 37
e 23 37
e 24 34
e 25 30
e 25 37
e 26 28
e 26 31
e 27 37
e 27 40
e 28 30
e 28 31
e 29 39
e 30 37
e 31 39
e 35 36
